1
1000
249
499 1
495 1
492 1
491 1
491 1
490 1
490 1
489 1
488 1
487 1
486 1
486 1
484 1
484 1
483 1
483 1
480 1
476 1
469 1
469 1
466 1
466 1
459 1
458 1
457 1
450 1
449 1
448 1
445 1
442 1
440 1
440 1
439 1
437 1
436 1
435 1
432 1
431 1
430 1
430 1
426 1
426 1
424 1
422 1
414 1
411 1
410 1
408 1
407 1
407 1
402 1
401 1
399 1
396 1
396 1
395 1
394 1
391 1
391 1
388 1
386 1
384 1
384 1
384 1
384 1
381 1
374 1
374 1
372 1
372 1
371 1
371 1
370 1
369 1
368 1
367 1
367 1
365 1
365 1
363 1
363 1
362 1
362 1
360 1
360 1
358 1
357 1
357 1
356 1
356 1
355 1
355 1
353 1
352 1
352 1
352 1
351 1
351 1
344 1
343 1
342 1
342 1
340 1
338 1
337 1
336 1
334 1
332 1
330 1
330 1
329 1
329 1
323 1
322 1
321 1
320 1
319 1
317 1
315 1
313 1
310 1
310 1
309 1
307 1
306 1
306 1
306 1
306 1
305 1
305 1
303 1
303 1
303 1
302 1
301 1
300 1
299 1
297 1
297 1
296 1
294 1
294 1
293 1
293 1
293 1
292 1
292 1
290 1
289 1
288 1
288 1
287 1
287 1
287 1
286 1
285 1
285 1
283 1
283 1
282 1
281 1
281 1
281 1
280 1
279 1
279 1
278 1
278 1
278 1
277 1
277 1
276 1
276 1
276 1
273 1
272 1
272 1
271 1
270 1
268 1
268 1
268 1
268 1
267 1
267 1
267 1
267 1
266 1
265 1
265 1
264 1
264 1
264 1
263 1
263 1
263 1
263 1
262 1
262 1
262 1
262 1
260 1
260 1
260 1
259 1
259 1
259 1
259 1
258 1
258 1
258 1
258 1
258 1
258 1
258 1
257 1
257 1
257 1
257 1
256 1
256 1
256 1
256 1
256 1
255 1
255 1
255 1
254 1
254 1
253 1
253 1
253 1
253 1
252 1
251 1
251 1
251 1
251 1
251 1
251 1
251 1
251 1
251 1
250 1
250 1
250 1
250 1
250 1
250 1
